\ This file has been generated by DOcplex
\ ENCODING=ISO-8859-1
\Problem name: VRPTW1

Minimize
 obj: 18.700000000000 x_0_1_0 + 18.700000000000 x_0_1_1
      + 18.700000000000 x_0_1_2 + 20.600000000000 x_0_2_0
      + 20.600000000000 x_0_2_1 + 20.600000000000 x_0_2_2
      + 16.100000000000 x_0_3_0 + 16.100000000000 x_0_3_1
      + 16.100000000000 x_0_3_2 + 18.700000000000 x_1_0_0
      + 18.700000000000 x_1_0_1 + 18.700000000000 x_1_0_2 + 2 x_1_2_0
      + 2 x_1_2_1 + 2 x_1_2_2 + 3.600000000000 x_1_3_0 + 3.600000000000 x_1_3_1
      + 3.600000000000 x_1_3_2 + 20.600000000000 x_2_0_0
      + 20.600000000000 x_2_0_1 + 20.600000000000 x_2_0_2 + 2 x_2_1_0
      + 2 x_2_1_1 + 2 x_2_1_2 + 5 x_2_3_0 + 5 x_2_3_1 + 5 x_2_3_2
      + 16.100000000000 x_3_0_0 + 16.100000000000 x_3_0_1
      + 16.100000000000 x_3_0_2 + 3.600000000000 x_3_1_0
      + 3.600000000000 x_3_1_1 + 3.600000000000 x_3_1_2 + 5 x_3_2_0 + 5 x_3_2_1
      + 5 x_3_2_2
Subject To
 c1: 10 y_1_0 + 30 y_2_0 + 10 y_3_0 <= 200
 c2: 10 y_1_1 + 30 y_2_1 + 10 y_3_1 <= 200
 c3: 10 y_1_2 + 30 y_2_2 + 10 y_3_2 <= 200
 c4: y_1_0 + y_1_1 + y_1_2 = 1
 c5: y_2_0 + y_2_1 + y_2_2 = 1
 c6: y_3_0 + y_3_1 + y_3_2 = 1
 c7: y_0_0 + y_0_1 + y_0_2 = 3
 c8: x_1_0_0 + x_2_0_0 + x_3_0_0 - y_0_0 = 0
 c9: x_1_0_1 + x_2_0_1 + x_3_0_1 - y_0_1 = 0
 c10: x_1_0_2 + x_2_0_2 + x_3_0_2 - y_0_2 = 0
 c11: x_0_1_0 + x_2_1_0 + x_3_1_0 - y_1_0 = 0
 c12: x_0_1_1 + x_2_1_1 + x_3_1_1 - y_1_1 = 0
 c13: x_0_1_2 + x_2_1_2 + x_3_1_2 - y_1_2 = 0
 c14: x_0_2_0 + x_1_2_0 + x_3_2_0 - y_2_0 = 0
 c15: x_0_2_1 + x_1_2_1 + x_3_2_1 - y_2_1 = 0
 c16: x_0_2_2 + x_1_2_2 + x_3_2_2 - y_2_2 = 0
 c17: x_0_3_0 + x_1_3_0 + x_2_3_0 - y_3_0 = 0
 c18: x_0_3_1 + x_1_3_1 + x_2_3_1 - y_3_1 = 0
 c19: x_0_3_2 + x_1_3_2 + x_2_3_2 - y_3_2 = 0
 c20: x_0_1_0 + x_0_2_0 + x_0_3_0 - y_0_0 = 0
 c21: x_0_1_1 + x_0_2_1 + x_0_3_1 - y_0_1 = 0
 c22: x_0_1_2 + x_0_2_2 + x_0_3_2 - y_0_2 = 0
 c23: x_1_0_0 + x_1_2_0 + x_1_3_0 - y_1_0 = 0
 c24: x_1_0_1 + x_1_2_1 + x_1_3_1 - y_1_1 = 0
 c25: x_1_0_2 + x_1_2_2 + x_1_3_2 - y_1_2 = 0
 c26: x_2_0_0 + x_2_1_0 + x_2_3_0 - y_2_0 = 0
 c27: x_2_0_1 + x_2_1_1 + x_2_3_1 - y_2_1 = 0
 c28: x_2_0_2 + x_2_1_2 + x_2_3_2 - y_2_2 = 0
 c29: x_3_0_0 + x_3_1_0 + x_3_2_0 - y_3_0 = 0
 c30: x_3_0_1 + x_3_1_1 + x_3_2_1 - y_3_1 = 0
 c31: x_3_0_2 + x_3_1_2 + x_3_2_2 - y_3_2 = 0
 c32: 10000000 x_1_2_0 + t_1 - t_2 <= 9999908
 c33: 10000000 x_1_2_1 + t_1 - t_2 <= 9999908
 c34: 10000000 x_1_2_2 + t_1 - t_2 <= 9999908
 c35: 10000000 x_1_3_0 + t_1 - t_3 <= 9999906.400000000373
 c36: 10000000 x_1_3_1 + t_1 - t_3 <= 9999906.400000000373
 c37: 10000000 x_1_3_2 + t_1 - t_3 <= 9999906.400000000373
 c38: 10000000 x_2_1_0 + t_2 - t_1 <= 9999908
 c39: 10000000 x_2_1_1 + t_2 - t_1 <= 9999908
 c40: 10000000 x_2_1_2 + t_2 - t_1 <= 9999908
 c41: 10000000 x_2_3_0 + t_2 - t_3 <= 9999905
 c42: 10000000 x_2_3_1 + t_2 - t_3 <= 9999905
 c43: 10000000 x_2_3_2 + t_2 - t_3 <= 9999905
 c44: 10000000 x_3_1_0 + t_3 - t_1 <= 9999906.400000000373
 c45: 10000000 x_3_1_1 + t_3 - t_1 <= 9999906.400000000373
 c46: 10000000 x_3_1_2 + t_3 - t_1 <= 9999906.400000000373
 c47: 10000000 x_3_2_0 + t_3 - t_2 <= 9999905
 c48: 10000000 x_3_2_1 + t_3 - t_2 <= 9999905
 c49: 10000000 x_3_2_2 + t_3 - t_2 <= 9999905
 c50: t_0_f_0 - 10000000 x_1_0_0 - t_1 >= -9999891.300000000745
 c51: t_0_f_1 - 10000000 x_1_0_1 - t_1 >= -9999891.300000000745
 c52: t_0_f_2 - 10000000 x_1_0_2 - t_1 >= -9999891.300000000745
 c53: t_0_f_0 - 10000000 x_2_0_0 - t_2 >= -9999889.400000000373
 c54: t_0_f_1 - 10000000 x_2_0_1 - t_2 >= -9999889.400000000373
 c55: t_0_f_2 - 10000000 x_2_0_2 - t_2 >= -9999889.400000000373
 c56: t_0_f_0 - 10000000 x_3_0_0 - t_3 >= -9999893.900000000373
 c57: t_0_f_1 - 10000000 x_3_0_1 - t_3 >= -9999893.900000000373
 c58: t_0_f_2 - 10000000 x_3_0_2 - t_3 >= -9999893.900000000373
 c59: t_1 - 10000000 x_0_1_0 - t_0_s_0 >= -9999891.300000000745
 c60: t_1 - 10000000 x_0_1_1 - t_0_s_1 >= -9999891.300000000745
 c61: t_1 - 10000000 x_0_1_2 - t_0_s_2 >= -9999891.300000000745
 c62: t_2 - 10000000 x_0_2_0 - t_0_s_0 >= -9999889.400000000373
 c63: t_2 - 10000000 x_0_2_1 - t_0_s_1 >= -9999889.400000000373
 c64: t_2 - 10000000 x_0_2_2 - t_0_s_2 >= -9999889.400000000373
 c65: t_3 - 10000000 x_0_3_0 - t_0_s_0 >= -9999893.900000000373
 c66: t_3 - 10000000 x_0_3_1 - t_0_s_1 >= -9999893.900000000373
 c67: t_3 - 10000000 x_0_3_2 - t_0_s_2 >= -9999893.900000000373
 c68: t_1 >= 912
 c69: t_2 >= 825
 c70: t_3 >= 65
 c71: t_1 <= 967
 c72: t_2 <= 870
 c73: t_3 <= 146
 c74: t_0_s_0 >= 0
 c75: t_0_s_1 >= 0
 c76: t_0_s_2 >= 0
 c77: t_0_s_0 <= 1236
 c78: t_0_s_1 <= 1236
 c79: t_0_s_2 <= 1236
 c80: t_0_f_0 >= 0
 c81: t_0_f_1 >= 0
 c82: t_0_f_2 >= 0
 c83: t_0_f_0 <= 1236
 c84: t_0_f_1 <= 1236
 c85: t_0_f_2 <= 1236

Bounds
 0 <= x_0_1_0 <= 1
 0 <= x_0_1_1 <= 1
 0 <= x_0_1_2 <= 1
 0 <= x_0_2_0 <= 1
 0 <= x_0_2_1 <= 1
 0 <= x_0_2_2 <= 1
 0 <= x_0_3_0 <= 1
 0 <= x_0_3_1 <= 1
 0 <= x_0_3_2 <= 1
 0 <= x_1_0_0 <= 1
 0 <= x_1_0_1 <= 1
 0 <= x_1_0_2 <= 1
 0 <= x_1_2_0 <= 1
 0 <= x_1_2_1 <= 1
 0 <= x_1_2_2 <= 1
 0 <= x_1_3_0 <= 1
 0 <= x_1_3_1 <= 1
 0 <= x_1_3_2 <= 1
 0 <= x_2_0_0 <= 1
 0 <= x_2_0_1 <= 1
 0 <= x_2_0_2 <= 1
 0 <= x_2_1_0 <= 1
 0 <= x_2_1_1 <= 1
 0 <= x_2_1_2 <= 1
 0 <= x_2_3_0 <= 1
 0 <= x_2_3_1 <= 1
 0 <= x_2_3_2 <= 1
 0 <= x_3_0_0 <= 1
 0 <= x_3_0_1 <= 1
 0 <= x_3_0_2 <= 1
 0 <= x_3_1_0 <= 1
 0 <= x_3_1_1 <= 1
 0 <= x_3_1_2 <= 1
 0 <= x_3_2_0 <= 1
 0 <= x_3_2_1 <= 1
 0 <= x_3_2_2 <= 1

Binaries
 x_0_1_0 x_0_1_1 x_0_1_2 x_0_2_0 x_0_2_1 x_0_2_2 x_0_3_0 x_0_3_1 x_0_3_2 x_1_0_0
 x_1_0_1 x_1_0_2 x_1_2_0 x_1_2_1 x_1_2_2 x_1_3_0 x_1_3_1 x_1_3_2 x_2_0_0 x_2_0_1
 x_2_0_2 x_2_1_0 x_2_1_1 x_2_1_2 x_2_3_0 x_2_3_1 x_2_3_2 x_3_0_0 x_3_0_1 x_3_0_2
 x_3_1_0 x_3_1_1 x_3_1_2 x_3_2_0 x_3_2_1 x_3_2_2
End
